40	100	100	100
30	1	29
34	3	27
11	3	33
23	28	16
22	25	20
27	30	27
1	9	11
11	3	23
4	27	10
23	13	27
33	4	14
19	5	5
27	14	3
3	8	34
6	33	22
31	23	32
23	4	1
25	21	17
4	34	22
34	12	31
13	7	2
34	2	30
8	24	10
6	1	28
7	31	4
14	34	6
21	23	15
28	31	17
7	18	12
15	7	26
34	15	31
4	15	32
2	27	21
14	29	32
26	4	25
19	1	33
22	24	25
25	29	23
22	32	12
18	29	12
